7568
10011100100000100010
0 0 0 0 0 18 0 18 8 18 18 18 18 18 18 3 3 3 3 3 3 4 4 4 4 4 4 4 4 0 5 5 5 5 5 5 5 5 0 0 3 3 4 3 18 5 18 3 14 5 3 18 14 18 18 18 5 0 3 3 3 3 0 14 18 14 3 3 3 3 18 4 14 8 14 14 14 14 3 18 